42 7 45 59 19 76 26 8 90 57 89 34 35 54 93 100 
15 11 28 9 86 78 66 10 74 
72 92 36 27 33 29 30 31 63 67 2 79 73 91 50 56 68 1 55 37 48 70 
5 65 14 69 62 23 88 98 87 22 18 51 49 43 25 
39 64 52 47 99 81 40 41 6 32 60 4 3 17 
82 21 95 83 85 94 71 44 12 16 75 46 97 96 20 13 24 77 58 80 
61 38 53 84 

